letting n =  10
letting blocks =  [[1, 2], [1, 9], [2, 2], [3, 6], [3, 7], [3, 9], [4, 1], [4, 2], [4, 3], [4, 8], [4, 9], [6, 1], [6, 7], [7, 1], [7, 2], [7, 10], [8, 1], [8, 4], [8, 6], [8, 8], [8, 10], [9, 6], [9, 8], [10, 2]]
